NAME: test1720
TYPE: TSP
DIMENSION: 11
EDGE_WEIGHT_TYPE: EUC_2D
NODE_COORD_SECTION
1 62.541173460237864 64.19743766693274
2 56.6309776492095 42.270985617598534
3 55.62940141160912 3.7137273203363685
4 15.493387514989143 14.822851820160743
5 79.21462945686213 24.13481135868115
6 94.54609160608149 15.283167451655865
7 97.45516741520342 71.59993841421104
8 21.471386925898905 37.66759275051138
9 26.801048397607687 72.00192082454029
10 87.91907871136729 84.05960323871255
11 86.17249677464254 55.92881365823315
EOF
